out/norm/cubes/z3/cubes_norm_inv3_len2_2.out
unsat
((set-logic NIA)
(declare-fun n!0 () Int)
(declare-fun m!1 () Int)
(declare-fun c!3 () Int)
(declare-fun k!2 () Int)
(proof
(let ((?x120 (+ m!1 (* (- 6) n!0))))
 (let (($x962 (<= ?x120 6)))
 (let (($x114 (= ?x120 6)))
 (let ((?x985 (+ k!2 m!1)))
 (let ((?x981 (* (+ 1 n!0) (+ 6 m!1) ?x985 ?x985 ?x985 ?x985)))
 (let ((?x244 (* k!2 m!1 n!0)))
 (let ((?x98 (+ (* 18 (* k!2 k!2)) (* (- 30) (* m!1 n!0)) ?x244 (* (- 3) (* m!1 m!1)) (* (- 11) (* m!1 m!1 n!0)) (* 18 (* c!3 k!2 n!0)) (* (- 13) (* k!2 k!2 k!2 m!1 m!1)) (* (- 9) (* c!3 k!2 m!1 m!1 m!1)) (* (- 15) (* k!2 k!2 m!1 m!1 m!1)) (* (- 3) (* c!3 m!1 m!1 m!1 m!1)) (* (- 7) (* k!2 m!1 m!1 m!1 m!1)) (* (- 18) (* c!3 k!2 k!2 k!2)) (* (- 24) (* k!2 k!2 k!2 k!2)) (* (- 54) (* c!3 k!2 k!2 m!1)) (* (- 75) (* k!2 k!2 k!2 m!1)) (* (- 54) (* c!3 k!2 m!1 m!1)) (* (- 81) (* k!2 k!2 m!1 m!1)) (* (- 18) (* c!3 m!1 m!1 m!1)) (* (- 33) (* k!2 m!1 m!1 m!1)) (* (- 6) (* k!2 k!2 n!0 n!0)) (* 3 (* c!3 k!2 m!1 n!0)) (* 38 (* k!2 k!2 m!1 n!0)) (* 3 (* c!3 m!1 m!1 n!0)) (* 37 (* k!2 m!1 m!1 n!0)) (* (- 14) (* k!2 m!1 n!0 n!0)) (* (- 8) (* m!1 m!1 n!0 n!0)) (* (- 30) (* k!2 n!0)) (* 3 (* c!3 k!2 m!1)) (* (- 9) (* c!3 k!2 k!2 m!1 m!1)) (* 15 (* k!2 m!1)) (* (- 18) k!2) (* (- 18) m!1) (* (- 1) (* k!2 k!2 m!1 n!0 n!0)) (* (- 2) (* k!2 m!1 m!1 n!0 n!0)) (* (- 12) (* k!2 n!0 n!0)) ?x981 (* (- 12) (* m!1 n!0 n!0)) (* (- 3) (* c!3 k!2 k!2 k!2 m!1)) (* (- 4) (* k!2 k!2 k!2 k!2 m!1)) (* (- 1) (* m!1 m!1 m!1 n!0 n!0)) (* 12 (* k!2 k!2 k!2 n!0)) (* 12 (* k!2 k!2 n!0)) (* 3 (* c!3 m!1 m!1)) (* 57 (* k!2 m!1 m!1)) (* 18 (* k!2 k!2 k!2)) (* 2 (* m!1 m!1 m!1 m!1 n!0)) (* 2 (* k!2 k!2 k!2 m!1 n!0)) (* 6 (* k!2 k!2 m!1 m!1 n!0)) (* 18 (* c!3 m!1)) (* (- 1) (* m!1 m!1 m!1 m!1 m!1)) (* 18 (* c!3 k!2)) (* 57 (* k!2 k!2 m!1)) (* 11 (* m!1 m!1 m!1 n!0)) (* 6 (* k!2 m!1 m!1 m!1 n!0)) (* 18 (* m!1 m!1 m!1)) (* (- 3) (* m!1 m!1 m!1 m!1)) (* 18 (* c!3 m!1 n!0)))))
 (let (($x103 (= ?x98 0)))
 (let (($x121 (not $x103)))
 (let ((?x784 (+ k!2 (* (- 3) n!0) (* (- 3) (* n!0 n!0)))))
 (let (($x1110 (= ?x784 1)))
 (let ((?x628 (* k!2 n!0)))
 (let ((?x260 (+ ?x628 (* (- 3) c!3) (* (- 1) k!2) (* 2 n!0))))
 (let (($x279 (= ?x260 (- 1))))
 (let ((?x102 (* (- 9) n!0)))
 (let ((?x106 (* 5 k!2)))
 (let ((?x115 (* 18 c!3)))
 (let ((?x112 (* k!2 k!2)))
 (let ((?x1432 (* (- 1) ?x112)))
 (let ((?x1088 (* 9 (* c!3 n!0))))
 (let ((?x296 (+ ?x1088 ?x1432 ?x115 ?x106 ?x102)))
 (let (($x252 (= ?x296 4)))
 (let (($x97 (and $x114 $x252 $x279 $x1110 $x121)))
 (let ((?x1285 (* m!1 m!1 m!1 m!1 m!1)))
 (let ((?x1078 (* m!1 m!1 m!1 n!0 n!0)))
 (let ((?x951 (* k!2 k!2 m!1 n!0 n!0)))
 (let ((?x1247 (+ (* 18 k!2) (* 18 m!1) (* (- 18) ?x112) (* 30 ?x628) ?x951 (* 2 (* k!2 m!1 m!1 n!0 n!0)) ?x1078 (* (- 1) ?x981) (* 3 (* c!3 k!2 k!2 k!2 m!1)) (* 4 (* k!2 k!2 k!2 k!2 m!1)) (* 9 (* c!3 k!2 k!2 m!1 m!1)) (* 13 (* k!2 k!2 k!2 m!1 m!1)) (* 9 (* c!3 k!2 m!1 m!1 m!1)) (* 15 (* k!2 k!2 m!1 m!1 m!1)) (* 3 (* c!3 m!1 m!1 m!1 m!1)) (* 7 (* k!2 m!1 m!1 m!1 m!1)) (* 18 (* c!3 k!2 k!2 k!2)) (* 24 (* k!2 k!2 k!2 k!2)) (* 54 (* c!3 k!2 k!2 m!1)) (* 75 (* k!2 k!2 k!2 m!1)) (* 54 (* c!3 k!2 m!1 m!1)) (* 81 (* k!2 k!2 m!1 m!1)) (* 18 (* c!3 m!1 m!1 m!1)) (* 33 (* k!2 m!1 m!1 m!1)) (* 6 (* k!2 k!2 n!0 n!0)) (* (- 3) (* c!3 k!2 m!1 n!0)) (* (- 38) (* k!2 k!2 m!1 n!0)) (* (- 3) (* c!3 m!1 m!1 n!0)) (* (- 37) (* k!2 m!1 m!1 n!0)) (* 14 (* k!2 m!1 n!0 n!0)) (* 8 (* m!1 m!1 n!0 n!0)) (* (- 15) (* k!2 m!1)) (* 3 (* m!1 m!1)) (* 30 (* m!1 n!0)) (* (- 1) ?x244) (* 11 (* m!1 m!1 n!0)) (* 12 (* k!2 n!0 n!0)) (* 12 (* m!1 n!0 n!0)) (* (- 18) (* c!3 k!2 n!0)) (* (- 3) (* c!3 k!2 m!1)) (* (- 18) (* c!3 m!1 n!0)) ?x1285 (* (- 18) (* c!3 k!2)) (* (- 18) (* c!3 m!1)) (* 3 (* m!1 m!1 m!1 m!1)) (* (- 2) (* k!2 k!2 k!2 m!1 n!0)) (* (- 6) (* k!2 k!2 m!1 m!1 n!0)) (* (- 6) (* k!2 m!1 m!1 m!1 n!0)) (* (- 2) (* m!1 m!1 m!1 m!1 n!0)) (* (- 18) (* k!2 k!2 k!2)) (* (- 57) (* k!2 k!2 m!1)) (* (- 57) (* k!2 m!1 m!1)) (* (- 18) (* m!1 m!1 m!1)) (* (- 11) (* m!1 m!1 m!1 n!0)) (* (- 3) (* c!3 m!1 m!1)) (* (- 12) (* k!2 k!2 n!0)) (* (- 12) (* k!2 k!2 k!2 n!0)))))
 (let (($x286 (and $x114 (= (+ ?x115 ?x106 ?x102 ?x1432 ?x1088) 4) (= (+ (* 3 c!3) k!2 (* (- 2) n!0) (* (- 1) ?x628)) 1) $x1110 (not (= ?x1247 0)))))
 (let (($x943 (exists ((c Int) (k Int) (m Int) (n Int) )(! (let ((?x217 (* (- 12) (* k k k n))))
 (let ((?x1444 (* k k n)))
 (let ((?x1641 (* (- 12) ?x1444)))
 (let ((?x1019 (* (- 3) (* c m m))))
 (let ((?x1409 (* m m m n)))
 (let ((?x1640 (* (- 11) ?x1409)))
 (let ((?x1375 (* m m m)))
 (let ((?x1638 (* (- 18) ?x1375)))
 (let ((?x1357 (* k m m)))
 (let ((?x1637 (* (- 57) ?x1357)))
 (let ((?x1339 (* k k m)))
 (let ((?x1636 (* (- 57) ?x1339)))
 (let ((?x1331 (* k k k)))
 (let ((?x1648 (* (- 18) ?x1331)))
 (let ((?x1587 (* (- 2) (* m m m m n))))
 (let ((?x1306 (* k m m m n)))
 (let ((?x162 (* (- 6) ?x1306)))
 (let ((?x1302 (* k k m m n)))
 (let ((?x159 (* (- 6) ?x1302)))
 (let ((?x1580 (* (- 2) (* k k k m n))))
 (let ((?x1147 (* m m m m)))
 (let ((?x1647 (* 3 ?x1147)))
 (let ((?x1131 (* (- 18) (* c m))))
 (let ((?x1092 (* (- 18) (* c k))))
 (let ((?x1045 (* m m m m m)))
 (let ((?x1119 (* (- 18) (* c m n))))
 (let ((?x1032 (* (- 3) (* c k m))))
 (let ((?x1103 (* (- 18) (* c k n))))
 (let ((?x1553 (* 12 (* m n n))))
 (let ((?x1552 (* 12 (* k n n))))
 (let ((?x868 (* m m n)))
 (let ((?x1634 (* 11 ?x868)))
 (let ((?x864 (* k m n)))
 (let ((?x1632 (* (- 1) ?x864)))
 (let ((?x1550 (* 30 (* m n))))
 (let ((?x853 (* m m)))
 (let ((?x1631 (* 3 ?x853)))
 (let ((?x807 (* m m n n)))
 (let ((?x1628 (* 8 ?x807)))
 (let ((?x805 (* k m n n)))
 (let ((?x1626 (* 14 ?x805)))
 (let ((?x759 (* k m m n)))
 (let ((?x1624 (* (- 37) ?x759)))
 (let ((?x1547 (* (- 3) (* c m m n))))
 (let ((?x755 (* k k m n)))
 (let ((?x1622 (* (- 38) ?x755)))
 (let ((?x1545 (* (- 3) (* c k m n))))
 (let ((?x748 (* 6 (* k k n n))))
 (let ((?x1530 (* 18 (* c m m m))))
 (let ((?x1527 (* 54 (* c k m m))))
 (let ((?x1524 (* 54 (* c k k m))))
 (let ((?x1522 (* 24 (* k k k k))))
 (let ((?x1521 (* 18 (* c k k k))))
 (let ((?x1520 (* 7 (* k m m m m))))
 (let ((?x453 (* 3 (* c m m m m))))
 (let ((?x1519 (* 15 (* k k m m m))))
 (let ((?x1517 (* 9 (* c k m m m))))
 (let ((?x1516 (* 13 (* k k k m m))))
 (let ((?x1514 (* 9 (* c k k m m))))
 (let ((?x1513 (* 4 (* k k k k m))))
 (let ((?x425 (* 3 (* c k k k m))))
 (let ((?x69 (+ k m)))
 (let ((?x311 (+ 6 m)))
 (let ((?x314 (+ 1 n)))
 (let ((?x395 (* ?x314 ?x311 ?x69 ?x69 ?x69 ?x69)))
 (let ((?x540 (* (- 1) ?x395)))
 (let ((?x382 (* m m m n n)))
 (let ((?x380 (* k m m n n)))
 (let ((?x796 (* 2 ?x380)))
 (let ((?x376 (* k k m n n)))
 (let ((?x55 (* k n)))
 (let ((?x1512 (* 30 ?x55)))
 (let ((?x49 (* k k)))
 (let ((?x1014 (* (- 18) ?x49)))
 (let ((?x1509 (* 18 m)))
 (let ((?x1508 (* 18 k)))
 (let ((?x646 (+ ?x1508 ?x1509 ?x1014 ?x1512 ?x376 ?x796 ?x382 ?x540 ?x425 ?x1513 ?x1514 ?x1516 ?x1517 ?x1519 ?x453 ?x1520 ?x1521 ?x1522 ?x1524 (* 75 (* k k k m)) ?x1527 (* 81 (* k k m m)) ?x1530 (* 33 (* k m m m)) ?x748 ?x1545 ?x1622 ?x1547 ?x1624 ?x1626 ?x1628 (* (- 15) (* k m)) ?x1631 ?x1550 ?x1632 ?x1634 ?x1552 ?x1553 ?x1103 ?x1032 ?x1119 ?x1045 ?x1092 ?x1131 ?x1647 ?x1580 ?x159 ?x162 ?x1587 ?x1648 ?x1636 ?x1637 ?x1638 ?x1640 ?x1019 ?x1641 ?x217)))
 (let (($x301 (= (+ k (* (- 3) n) (* (- 3) (* n n))) 1)))
 (let (($x263 (= (+ (* 3 c) k (* (- 2) n) (* (- 1) ?x55)) 1)))
 (let ((?x214 (* (- 1) ?x49)))
 (let ((?x213 (* (- 9) n)))
 (let ((?x44 (* 5 k)))
 (let ((?x40 (* 18 c)))
 (let (($x211 (= (+ ?x40 ?x44 ?x213 ?x214 (* 9 (* c n))) 4)))
 (let (($x127 (= (+ m (* (- 6) n)) 6)))
 (and $x127 $x211 $x263 $x301 (not (= ?x646 0)))))))))))))))))))))))))))))))))))))))))))))))))))))))))))))))))))))))))))))))))))))))) :qid k!34))
 ))
 (let (($x470 (exists ((c Int) (k Int) (m Int) (n Int) )(! (let ((?x217 (* (- 12) (* k k k n))))
 (let ((?x1444 (* k k n)))
 (let ((?x1641 (* (- 12) ?x1444)))
 (let ((?x1019 (* (- 3) (* c m m))))
 (let ((?x1409 (* m m m n)))
 (let ((?x1640 (* (- 11) ?x1409)))
 (let ((?x1375 (* m m m)))
 (let ((?x1638 (* (- 18) ?x1375)))
 (let ((?x1357 (* k m m)))
 (let ((?x1637 (* (- 57) ?x1357)))
 (let ((?x1339 (* k k m)))
 (let ((?x1636 (* (- 57) ?x1339)))
 (let ((?x1331 (* k k k)))
 (let ((?x1648 (* (- 18) ?x1331)))
 (let ((?x1587 (* (- 2) (* m m m m n))))
 (let ((?x1306 (* k m m m n)))
 (let ((?x162 (* (- 6) ?x1306)))
 (let ((?x1302 (* k k m m n)))
 (let ((?x159 (* (- 6) ?x1302)))
 (let ((?x1580 (* (- 2) (* k k k m n))))
 (let ((?x1147 (* m m m m)))
 (let ((?x1647 (* 3 ?x1147)))
 (let ((?x1131 (* (- 18) (* c m))))
 (let ((?x1092 (* (- 18) (* c k))))
 (let ((?x1045 (* m m m m m)))
 (let ((?x1119 (* (- 18) (* c m n))))
 (let ((?x1032 (* (- 3) (* c k m))))
 (let ((?x1103 (* (- 18) (* c k n))))
 (let ((?x1553 (* 12 (* m n n))))
 (let ((?x1552 (* 12 (* k n n))))
 (let ((?x868 (* m m n)))
 (let ((?x1634 (* 11 ?x868)))
 (let ((?x864 (* k m n)))
 (let ((?x1632 (* (- 1) ?x864)))
 (let ((?x1550 (* 30 (* m n))))
 (let ((?x853 (* m m)))
 (let ((?x1631 (* 3 ?x853)))
 (let ((?x807 (* m m n n)))
 (let ((?x1628 (* 8 ?x807)))
 (let ((?x805 (* k m n n)))
 (let ((?x1626 (* 14 ?x805)))
 (let ((?x759 (* k m m n)))
 (let ((?x1624 (* (- 37) ?x759)))
 (let ((?x1547 (* (- 3) (* c m m n))))
 (let ((?x755 (* k k m n)))
 (let ((?x1622 (* (- 38) ?x755)))
 (let ((?x1545 (* (- 3) (* c k m n))))
 (let ((?x748 (* 6 (* k k n n))))
 (let ((?x1530 (* 18 (* c m m m))))
 (let ((?x1527 (* 54 (* c k m m))))
 (let ((?x1524 (* 54 (* c k k m))))
 (let ((?x1522 (* 24 (* k k k k))))
 (let ((?x1521 (* 18 (* c k k k))))
 (let ((?x1520 (* 7 (* k m m m m))))
 (let ((?x453 (* 3 (* c m m m m))))
 (let ((?x1519 (* 15 (* k k m m m))))
 (let ((?x1517 (* 9 (* c k m m m))))
 (let ((?x1516 (* 13 (* k k k m m))))
 (let ((?x1514 (* 9 (* c k k m m))))
 (let ((?x1513 (* 4 (* k k k k m))))
 (let ((?x425 (* 3 (* c k k k m))))
 (let ((?x69 (+ k m)))
 (let ((?x311 (+ 6 m)))
 (let ((?x314 (+ 1 n)))
 (let ((?x395 (* ?x314 ?x311 ?x69 ?x69 ?x69 ?x69)))
 (let ((?x540 (* (- 1) ?x395)))
 (let ((?x382 (* m m m n n)))
 (let ((?x380 (* k m m n n)))
 (let ((?x796 (* 2 ?x380)))
 (let ((?x376 (* k k m n n)))
 (let ((?x55 (* k n)))
 (let ((?x1512 (* 30 ?x55)))
 (let ((?x49 (* k k)))
 (let ((?x1014 (* (- 18) ?x49)))
 (let ((?x1509 (* 18 m)))
 (let ((?x1508 (* 18 k)))
 (let ((?x1649 (+ ?x1508 ?x1509 ?x1014 ?x1512 ?x376 ?x796 ?x382 ?x540 ?x425 ?x1513 ?x1514 ?x1516 ?x1517 ?x1519 ?x453 ?x1520 ?x1521 ?x1522 ?x1524 (* 57 (* k k k m)) ?x1527 (* 51 (* k k m m)) ?x1530 (* 15 (* k m m m)) ?x748 ?x1545 ?x1622 ?x1547 ?x1624 ?x1626 ?x1628 (* (- 21) (* k m)) ?x1631 ?x1550 ?x1632 ?x1634 ?x1552 ?x1553 (* 6 (* k m k k)) (* 6 (* m k k k)) (* 6 (* m m k k)) (* 6 (* k k m k)) ?x1103 ?x1032 (* 6 (* m k)) ?x1119 ?x1045 (* 6 (* m k m k)) (* 6 (* k m m k)) ?x1092 ?x1131 ?x1647 ?x1580 ?x159 (* 6 (* m k m m)) ?x162 ?x1587 ?x1648 ?x1636 ?x1637 ?x1638 (* 6 (* m m k m)) ?x1640 (* 6 (* k m k m)) ?x1019 (* 6 (* m k k m)) ?x1641 (* 6 (* m m m k)) ?x217)))
 (let (($x301 (= (+ k (* (- 3) n) (* (- 3) (* n n))) 1)))
 (let (($x263 (= (+ (* 3 c) k (* (- 2) n) (* (- 1) ?x55)) 1)))
 (let ((?x214 (* (- 1) ?x49)))
 (let ((?x213 (* (- 9) n)))
 (let ((?x44 (* 5 k)))
 (let ((?x40 (* 18 c)))
 (let (($x211 (= (+ ?x40 ?x44 ?x213 ?x214 (* 9 (* c n))) 4)))
 (let (($x127 (= (+ m (* (- 6) n)) 6)))
 (and $x127 $x211 $x263 $x301 (not (= ?x1649 0)))))))))))))))))))))))))))))))))))))))))))))))))))))))))))))))))))))))))))))))))))))))) :qid k!34))
 ))
 (let ((?x942 (lambda ((c Int) (k Int) (m Int) (n Int) )(let ((?x217 (* (- 12) (* k k k n))))
 (let ((?x1444 (* k k n)))
 (let ((?x1641 (* (- 12) ?x1444)))
 (let ((?x1019 (* (- 3) (* c m m))))
 (let ((?x1409 (* m m m n)))
 (let ((?x1640 (* (- 11) ?x1409)))
 (let ((?x1375 (* m m m)))
 (let ((?x1638 (* (- 18) ?x1375)))
 (let ((?x1357 (* k m m)))
 (let ((?x1637 (* (- 57) ?x1357)))
 (let ((?x1339 (* k k m)))
 (let ((?x1636 (* (- 57) ?x1339)))
 (let ((?x1331 (* k k k)))
 (let ((?x1648 (* (- 18) ?x1331)))
 (let ((?x1587 (* (- 2) (* m m m m n))))
 (let ((?x1306 (* k m m m n)))
 (let ((?x162 (* (- 6) ?x1306)))
 (let ((?x1302 (* k k m m n)))
 (let ((?x159 (* (- 6) ?x1302)))
 (let ((?x1580 (* (- 2) (* k k k m n))))
 (let ((?x1147 (* m m m m)))
 (let ((?x1647 (* 3 ?x1147)))
 (let ((?x1131 (* (- 18) (* c m))))
 (let ((?x1092 (* (- 18) (* c k))))
 (let ((?x1045 (* m m m m m)))
 (let ((?x1119 (* (- 18) (* c m n))))
 (let ((?x1032 (* (- 3) (* c k m))))
 (let ((?x1103 (* (- 18) (* c k n))))
 (let ((?x1553 (* 12 (* m n n))))
 (let ((?x1552 (* 12 (* k n n))))
 (let ((?x868 (* m m n)))
 (let ((?x1634 (* 11 ?x868)))
 (let ((?x864 (* k m n)))
 (let ((?x1632 (* (- 1) ?x864)))
 (let ((?x1550 (* 30 (* m n))))
 (let ((?x853 (* m m)))
 (let ((?x1631 (* 3 ?x853)))
 (let ((?x807 (* m m n n)))
 (let ((?x1628 (* 8 ?x807)))
 (let ((?x805 (* k m n n)))
 (let ((?x1626 (* 14 ?x805)))
 (let ((?x759 (* k m m n)))
 (let ((?x1624 (* (- 37) ?x759)))
 (let ((?x1547 (* (- 3) (* c m m n))))
 (let ((?x755 (* k k m n)))
 (let ((?x1622 (* (- 38) ?x755)))
 (let ((?x1545 (* (- 3) (* c k m n))))
 (let ((?x748 (* 6 (* k k n n))))
 (let ((?x1530 (* 18 (* c m m m))))
 (let ((?x1527 (* 54 (* c k m m))))
 (let ((?x1524 (* 54 (* c k k m))))
 (let ((?x1522 (* 24 (* k k k k))))
 (let ((?x1521 (* 18 (* c k k k))))
 (let ((?x1520 (* 7 (* k m m m m))))
 (let ((?x453 (* 3 (* c m m m m))))
 (let ((?x1519 (* 15 (* k k m m m))))
 (let ((?x1517 (* 9 (* c k m m m))))
 (let ((?x1516 (* 13 (* k k k m m))))
 (let ((?x1514 (* 9 (* c k k m m))))
 (let ((?x1513 (* 4 (* k k k k m))))
 (let ((?x425 (* 3 (* c k k k m))))
 (let ((?x69 (+ k m)))
 (let ((?x311 (+ 6 m)))
 (let ((?x314 (+ 1 n)))
 (let ((?x395 (* ?x314 ?x311 ?x69 ?x69 ?x69 ?x69)))
 (let ((?x540 (* (- 1) ?x395)))
 (let ((?x382 (* m m m n n)))
 (let ((?x380 (* k m m n n)))
 (let ((?x796 (* 2 ?x380)))
 (let ((?x376 (* k k m n n)))
 (let ((?x55 (* k n)))
 (let ((?x1512 (* 30 ?x55)))
 (let ((?x49 (* k k)))
 (let ((?x1014 (* (- 18) ?x49)))
 (let ((?x1509 (* 18 m)))
 (let ((?x1508 (* 18 k)))
 (let ((?x646 (+ ?x1508 ?x1509 ?x1014 ?x1512 ?x376 ?x796 ?x382 ?x540 ?x425 ?x1513 ?x1514 ?x1516 ?x1517 ?x1519 ?x453 ?x1520 ?x1521 ?x1522 ?x1524 (* 75 (* k k k m)) ?x1527 (* 81 (* k k m m)) ?x1530 (* 33 (* k m m m)) ?x748 ?x1545 ?x1622 ?x1547 ?x1624 ?x1626 ?x1628 (* (- 15) (* k m)) ?x1631 ?x1550 ?x1632 ?x1634 ?x1552 ?x1553 ?x1103 ?x1032 ?x1119 ?x1045 ?x1092 ?x1131 ?x1647 ?x1580 ?x159 ?x162 ?x1587 ?x1648 ?x1636 ?x1637 ?x1638 ?x1640 ?x1019 ?x1641 ?x217)))
 (let (($x301 (= (+ k (* (- 3) n) (* (- 3) (* n n))) 1)))
 (let (($x263 (= (+ (* 3 c) k (* (- 2) n) (* (- 1) ?x55)) 1)))
 (let ((?x214 (* (- 1) ?x49)))
 (let ((?x213 (* (- 9) n)))
 (let ((?x44 (* 5 k)))
 (let ((?x40 (* 18 c)))
 (let (($x211 (= (+ ?x40 ?x44 ?x213 ?x214 (* 9 (* c n))) 4)))
 (let (($x127 (= (+ m (* (- 6) n)) 6)))
 (let (($x333 (and $x127 $x211 $x263 $x301 (not (= ?x646 0)))))
 (let ((?x1649 (+ ?x1508 ?x1509 ?x1014 ?x1512 ?x376 ?x796 ?x382 ?x540 ?x425 ?x1513 ?x1514 ?x1516 ?x1517 ?x1519 ?x453 ?x1520 ?x1521 ?x1522 ?x1524 (* 57 (* k k k m)) ?x1527 (* 51 (* k k m m)) ?x1530 (* 15 (* k m m m)) ?x748 ?x1545 ?x1622 ?x1547 ?x1624 ?x1626 ?x1628 (* (- 21) (* k m)) ?x1631 ?x1550 ?x1632 ?x1634 ?x1552 ?x1553 (* 6 (* k m k k)) (* 6 (* m k k k)) (* 6 (* m m k k)) (* 6 (* k k m k)) ?x1103 ?x1032 (* 6 (* m k)) ?x1119 ?x1045 (* 6 (* m k m k)) (* 6 (* k m m k)) ?x1092 ?x1131 ?x1647 ?x1580 ?x159 (* 6 (* m k m m)) ?x162 ?x1587 ?x1648 ?x1636 ?x1637 ?x1638 (* 6 (* m m k m)) ?x1640 (* 6 (* k m k m)) ?x1019 (* 6 (* m k k m)) ?x1641 (* 6 (* m m m k)) ?x217)))
 (let (($x1655 (and $x127 $x211 $x263 $x301 (not (= ?x1649 0)))))
 (rewrite (= $x1655 $x333)))))))))))))))))))))))))))))))))))))))))))))))))))))))))))))))))))))))))))))))))))))))))))
 ))
 (let (($x851 (exists ((c Int) (k Int) (m Int) (n Int) )(! (let ((?x69 (+ k m)))
 (let ((?x311 (+ 6 m)))
 (let ((?x314 (+ 1 n)))
 (let ((?x475 (* ?x314 ?x311 ?x69 ?x69)))
 (let ((?x412 (* ?x311 ?x69 ?x69 ?x69 ?x69)))
 (let ((?x395 (* ?x314 ?x311 ?x69 ?x69 ?x69 ?x69)))
 (let ((?x540 (* (- 1) ?x395)))
 (let ((?x1081 (* ?x314 ?x311 ?x69)))
 (let ((?x1336 (* ?x314 ?x314 ?x311 ?x69 ?x69)))
 (let ((?x758 (+ ?x1336 (* 3 (* ?x311 ?x69 ?x69 ?x69 (+ c k))) (* (- 3) (* ?x314 ?x311 ?x69 (+ c k))) (* 2 (* ?x314 ?x314 ?x311 ?x69)) ?x1081 ?x540 ?x412 (* (- 2) (* ?x314 ?x311 ?x69 ?x69 ?x69)) (* (- 1) (* ?x311 ?x69 ?x69 ?x69)) (* (- 1) ?x475))))
 (let (($x144 (= (+ (* 3 (* n n)) (* (- 1) k) (* 3 n)) (- 1))))
 (let (($x369 (= (+ (* 3 c) (* (- 1) (* n k)) k (* (- 2) n)) 1)))
 (let ((?x49 (* k k)))
 (let ((?x214 (* (- 1) ?x49)))
 (let ((?x213 (* (- 9) n)))
 (let ((?x44 (* 5 k)))
 (let ((?x40 (* 18 c)))
 (let (($x127 (= (+ m (* (- 6) n)) 6)))
 (and $x127 (= (+ ?x40 (* 9 (* n c)) ?x44 ?x213 ?x214) 4) $x369 $x144 (not (= ?x758 0))))))))))))))))))))) :qid k!34))
 ))
 (let ((?x500 (lambda ((c Int) (k Int) (m Int) (n Int) )(let ((?x217 (* (- 12) (* k k k n))))
 (let ((?x1444 (* k k n)))
 (let ((?x1641 (* (- 12) ?x1444)))
 (let ((?x1019 (* (- 3) (* c m m))))
 (let ((?x1409 (* m m m n)))
 (let ((?x1640 (* (- 11) ?x1409)))
 (let ((?x1375 (* m m m)))
 (let ((?x1638 (* (- 18) ?x1375)))
 (let ((?x1357 (* k m m)))
 (let ((?x1637 (* (- 57) ?x1357)))
 (let ((?x1339 (* k k m)))
 (let ((?x1636 (* (- 57) ?x1339)))
 (let ((?x1331 (* k k k)))
 (let ((?x1648 (* (- 18) ?x1331)))
 (let ((?x1587 (* (- 2) (* m m m m n))))
 (let ((?x1306 (* k m m m n)))
 (let ((?x162 (* (- 6) ?x1306)))
 (let ((?x1302 (* k k m m n)))
 (let ((?x159 (* (- 6) ?x1302)))
 (let ((?x1580 (* (- 2) (* k k k m n))))
 (let ((?x1147 (* m m m m)))
 (let ((?x1647 (* 3 ?x1147)))
 (let ((?x1131 (* (- 18) (* c m))))
 (let ((?x1092 (* (- 18) (* c k))))
 (let ((?x1045 (* m m m m m)))
 (let ((?x1119 (* (- 18) (* c m n))))
 (let ((?x1032 (* (- 3) (* c k m))))
 (let ((?x1103 (* (- 18) (* c k n))))
 (let ((?x1553 (* 12 (* m n n))))
 (let ((?x1552 (* 12 (* k n n))))
 (let ((?x868 (* m m n)))
 (let ((?x1634 (* 11 ?x868)))
 (let ((?x864 (* k m n)))
 (let ((?x1632 (* (- 1) ?x864)))
 (let ((?x1550 (* 30 (* m n))))
 (let ((?x853 (* m m)))
 (let ((?x1631 (* 3 ?x853)))
 (let ((?x807 (* m m n n)))
 (let ((?x1628 (* 8 ?x807)))
 (let ((?x805 (* k m n n)))
 (let ((?x1626 (* 14 ?x805)))
 (let ((?x759 (* k m m n)))
 (let ((?x1624 (* (- 37) ?x759)))
 (let ((?x1547 (* (- 3) (* c m m n))))
 (let ((?x755 (* k k m n)))
 (let ((?x1622 (* (- 38) ?x755)))
 (let ((?x1545 (* (- 3) (* c k m n))))
 (let ((?x748 (* 6 (* k k n n))))
 (let ((?x1530 (* 18 (* c m m m))))
 (let ((?x1527 (* 54 (* c k m m))))
 (let ((?x1524 (* 54 (* c k k m))))
 (let ((?x1522 (* 24 (* k k k k))))
 (let ((?x1521 (* 18 (* c k k k))))
 (let ((?x1520 (* 7 (* k m m m m))))
 (let ((?x453 (* 3 (* c m m m m))))
 (let ((?x1519 (* 15 (* k k m m m))))
 (let ((?x1517 (* 9 (* c k m m m))))
 (let ((?x1516 (* 13 (* k k k m m))))
 (let ((?x1514 (* 9 (* c k k m m))))
 (let ((?x1513 (* 4 (* k k k k m))))
 (let ((?x425 (* 3 (* c k k k m))))
 (let ((?x69 (+ k m)))
 (let ((?x311 (+ 6 m)))
 (let ((?x314 (+ 1 n)))
 (let ((?x395 (* ?x314 ?x311 ?x69 ?x69 ?x69 ?x69)))
 (let ((?x540 (* (- 1) ?x395)))
 (let ((?x382 (* m m m n n)))
 (let ((?x380 (* k m m n n)))
 (let ((?x796 (* 2 ?x380)))
 (let ((?x376 (* k k m n n)))
 (let ((?x55 (* k n)))
 (let ((?x1512 (* 30 ?x55)))
 (let ((?x49 (* k k)))
 (let ((?x1014 (* (- 18) ?x49)))
 (let ((?x1509 (* 18 m)))
 (let ((?x1508 (* 18 k)))
 (let ((?x1649 (+ ?x1508 ?x1509 ?x1014 ?x1512 ?x376 ?x796 ?x382 ?x540 ?x425 ?x1513 ?x1514 ?x1516 ?x1517 ?x1519 ?x453 ?x1520 ?x1521 ?x1522 ?x1524 (* 57 (* k k k m)) ?x1527 (* 51 (* k k m m)) ?x1530 (* 15 (* k m m m)) ?x748 ?x1545 ?x1622 ?x1547 ?x1624 ?x1626 ?x1628 (* (- 21) (* k m)) ?x1631 ?x1550 ?x1632 ?x1634 ?x1552 ?x1553 (* 6 (* k m k k)) (* 6 (* m k k k)) (* 6 (* m m k k)) (* 6 (* k k m k)) ?x1103 ?x1032 (* 6 (* m k)) ?x1119 ?x1045 (* 6 (* m k m k)) (* 6 (* k m m k)) ?x1092 ?x1131 ?x1647 ?x1580 ?x159 (* 6 (* m k m m)) ?x162 ?x1587 ?x1648 ?x1636 ?x1637 ?x1638 (* 6 (* m m k m)) ?x1640 (* 6 (* k m k m)) ?x1019 (* 6 (* m k k m)) ?x1641 (* 6 (* m m m k)) ?x217)))
 (let (($x301 (= (+ k (* (- 3) n) (* (- 3) (* n n))) 1)))
 (let (($x263 (= (+ (* 3 c) k (* (- 2) n) (* (- 1) ?x55)) 1)))
 (let ((?x214 (* (- 1) ?x49)))
 (let ((?x213 (* (- 9) n)))
 (let ((?x44 (* 5 k)))
 (let ((?x40 (* 18 c)))
 (let (($x211 (= (+ ?x40 ?x44 ?x213 ?x214 (* 9 (* c n))) 4)))
 (let (($x127 (= (+ m (* (- 6) n)) 6)))
 (let (($x1655 (and $x127 $x211 $x263 $x301 (not (= ?x1649 0)))))
 (let ((?x412 (* ?x311 ?x69 ?x69 ?x69 ?x69)))
 (let ((?x1081 (* ?x314 ?x311 ?x69)))
 (let ((?x1336 (* ?x314 ?x314 ?x311 ?x69 ?x69)))
 (let ((?x758 (+ ?x1336 (* 3 (* ?x311 ?x69 ?x69 ?x69 (+ c k))) (* (- 3) (* ?x314 ?x311 ?x69 (+ c k))) (* 2 (* ?x314 ?x314 ?x311 ?x69)) ?x1081 ?x540 ?x412 (* (- 2) (* ?x314 ?x311 ?x69 ?x69 ?x69)) (* (- 1) (* ?x311 ?x69 ?x69 ?x69)) (* (- 1) (* ?x314 ?x311 ?x69 ?x69)))))
 (let (($x144 (= (+ (* 3 (* n n)) (* (- 1) k) (* 3 n)) (- 1))))
 (let (($x369 (= (+ (* 3 c) (* (- 1) (* n k)) k (* (- 2) n)) 1)))
 (let (($x383 (and $x127 (= (+ ?x40 (* 9 (* n c)) ?x44 ?x213 ?x214) 4) $x369 $x144 (not (= ?x758 0)))))
 (rewrite (= $x383 $x1655))))))))))))))))))))))))))))))))))))))))))))))))))))))))))))))))))))))))))))))))))))))))))))))))
 ))
 (let (($x193 (exists ((c Int) (k Int) (m Int) (n Int) )(! (let ((?x69 (+ k m)))
 (let ((?x311 (+ 6 m)))
 (let ((?x314 (+ 1 n)))
 (let ((?x475 (* ?x314 ?x311 ?x69 ?x69)))
 (let ((?x455 (* ?x311 ?x69 ?x69 ?x69)))
 (let ((?x395 (* ?x314 ?x311 ?x69 ?x69 ?x69 ?x69)))
 (let ((?x483 (+ (* (- 1) (* ?x314 ?x314 ?x311 ?x69 ?x69)) (* (- 3) (* ?x311 ?x69 ?x69 ?x69 (+ c k))) (* 3 (* ?x314 ?x311 ?x69 (+ c k))) (* (- 2) (* ?x314 ?x314 ?x311 ?x69)) (* (- 1) (* ?x314 ?x311 ?x69)) ?x395 (* (- 1) (* ?x311 ?x69 ?x69 ?x69 ?x69)) (* 2 (* ?x314 ?x311 ?x69 ?x69 ?x69)) ?x455 ?x475)))
 (let (($x144 (= (+ (* 3 (* n n)) (* (- 1) k) (* 3 n)) (- 1))))
 (let (($x703 (= (+ (* (- 3) c) (* n k) (* (- 1) k) (* 2 n)) (- 1))))
 (let ((?x49 (* k k)))
 (let ((?x48 (* 9 n)))
 (let ((?x903 (+ (* (- 18) c) (* (- 9) (* n c)) (* (- 5) k) ?x48 ?x49)))
 (let (($x127 (= (+ m (* (- 6) n)) 6)))
 (and $x127 (= ?x903 (- 4)) $x703 $x144 (not (= ?x483 0)))))))))))))))) :qid k!34))
 ))
 (let ((?x852 (lambda ((c Int) (k Int) (m Int) (n Int) )(let ((?x69 (+ k m)))
 (let ((?x311 (+ 6 m)))
 (let ((?x314 (+ 1 n)))
 (let ((?x475 (* ?x314 ?x311 ?x69 ?x69)))
 (let ((?x412 (* ?x311 ?x69 ?x69 ?x69 ?x69)))
 (let ((?x395 (* ?x314 ?x311 ?x69 ?x69 ?x69 ?x69)))
 (let ((?x540 (* (- 1) ?x395)))
 (let ((?x1081 (* ?x314 ?x311 ?x69)))
 (let ((?x1336 (* ?x314 ?x314 ?x311 ?x69 ?x69)))
 (let ((?x758 (+ ?x1336 (* 3 (* ?x311 ?x69 ?x69 ?x69 (+ c k))) (* (- 3) (* ?x314 ?x311 ?x69 (+ c k))) (* 2 (* ?x314 ?x314 ?x311 ?x69)) ?x1081 ?x540 ?x412 (* (- 2) (* ?x314 ?x311 ?x69 ?x69 ?x69)) (* (- 1) (* ?x311 ?x69 ?x69 ?x69)) (* (- 1) ?x475))))
 (let (($x144 (= (+ (* 3 (* n n)) (* (- 1) k) (* 3 n)) (- 1))))
 (let (($x369 (= (+ (* 3 c) (* (- 1) (* n k)) k (* (- 2) n)) 1)))
 (let ((?x49 (* k k)))
 (let ((?x214 (* (- 1) ?x49)))
 (let ((?x213 (* (- 9) n)))
 (let ((?x44 (* 5 k)))
 (let ((?x40 (* 18 c)))
 (let (($x127 (= (+ m (* (- 6) n)) 6)))
 (let (($x383 (and $x127 (= (+ ?x40 (* 9 (* n c)) ?x44 ?x213 ?x214) 4) $x369 $x144 (not (= ?x758 0)))))
 (let ((?x455 (* ?x311 ?x69 ?x69 ?x69)))
 (let ((?x483 (+ (* (- 1) ?x1336) (* (- 3) (* ?x311 ?x69 ?x69 ?x69 (+ c k))) (* 3 (* ?x314 ?x311 ?x69 (+ c k))) (* (- 2) (* ?x314 ?x314 ?x311 ?x69)) (* (- 1) ?x1081) ?x395 (* (- 1) ?x412) (* 2 (* ?x314 ?x311 ?x69 ?x69 ?x69)) ?x455 ?x475)))
 (let (($x703 (= (+ (* (- 3) c) (* n k) (* (- 1) k) (* 2 n)) (- 1))))
 (let ((?x48 (* 9 n)))
 (let ((?x903 (+ (* (- 18) c) (* (- 9) (* n c)) (* (- 5) k) ?x48 ?x49)))
 (let (($x430 (and $x127 (= ?x903 (- 4)) $x703 $x144 (not (= ?x483 0)))))
 (rewrite (= $x430 $x383))))))))))))))))))))))))))))
 ))
 (let (($x94 (exists ((c Int) (k Int) (m Int) (n Int) )(! (let ((?x71 (+ n 1)))
 (let ((?x70 (+ m 6)))
 (let ((?x69 (+ k m)))
 (let ((?x75 (- (* (- 1) ?x69 ?x69 ?x70 ?x71 ?x71) (* 3 (+ c k) ?x69 ?x69 ?x69 ?x70))))
 (let ((?x80 (- (+ ?x75 (* 3 (+ c k) ?x69 ?x70 ?x71)) (* 2 ?x69 ?x70 ?x71 ?x71))))
 (let ((?x85 (- (+ (- ?x80 (* ?x69 ?x70 ?x71)) (* ?x69 ?x69 ?x69 ?x69 ?x70 ?x71)) (* ?x69 ?x69 ?x69 ?x69 ?x70))))
 (let ((?x89 (+ ?x85 (* 2 ?x69 ?x69 ?x69 ?x70 ?x71) (* ?x69 ?x69 ?x69 ?x70) (* ?x69 ?x69 ?x70 ?x71))))
 (let (($x67 (= (+ (- (+ 1 (* 3 n n)) k) (* 3 n)) 0)))
 (let ((?x59 (* 2 n)))
 (let (($x61 (= (+ (- (+ (- 1 (* 3 c)) (* k n)) k) ?x59) 0)))
 (let ((?x49 (* k k)))
 (let ((?x48 (* 9 n)))
 (let ((?x44 (* 5 k)))
 (let ((?x47 (- (- (- (* 4 1) (* 18 c)) (* 9 c n)) ?x44)))
 (and (= (- (+ (* (- 6) 1) m) (* 6 n)) 0) (= (+ ?x47 ?x48 ?x49) 0) $x61 $x67 (or (not (= ?x89 0)))))))))))))))))) :qid k!34))
 ))
 (let ((?x530 (lambda ((c Int) (k Int) (m Int) (n Int) )(let ((?x69 (+ k m)))
 (let ((?x311 (+ 6 m)))
 (let ((?x314 (+ 1 n)))
 (let ((?x475 (* ?x314 ?x311 ?x69 ?x69)))
 (let ((?x455 (* ?x311 ?x69 ?x69 ?x69)))
 (let ((?x395 (* ?x314 ?x311 ?x69 ?x69 ?x69 ?x69)))
 (let ((?x483 (+ (* (- 1) (* ?x314 ?x314 ?x311 ?x69 ?x69)) (* (- 3) (* ?x311 ?x69 ?x69 ?x69 (+ c k))) (* 3 (* ?x314 ?x311 ?x69 (+ c k))) (* (- 2) (* ?x314 ?x314 ?x311 ?x69)) (* (- 1) (* ?x314 ?x311 ?x69)) ?x395 (* (- 1) (* ?x311 ?x69 ?x69 ?x69 ?x69)) (* 2 (* ?x314 ?x311 ?x69 ?x69 ?x69)) ?x455 ?x475)))
 (let (($x144 (= (+ (* 3 (* n n)) (* (- 1) k) (* 3 n)) (- 1))))
 (let (($x703 (= (+ (* (- 3) c) (* n k) (* (- 1) k) (* 2 n)) (- 1))))
 (let ((?x49 (* k k)))
 (let ((?x48 (* 9 n)))
 (let ((?x903 (+ (* (- 18) c) (* (- 9) (* n c)) (* (- 5) k) ?x48 ?x49)))
 (let (($x127 (= (+ m (* (- 6) n)) 6)))
 (let (($x430 (and $x127 (= ?x903 (- 4)) $x703 $x144 (not (= ?x483 0)))))
 (let ((?x71 (+ n 1)))
 (let ((?x70 (+ m 6)))
 (let ((?x75 (- (* (- 1) ?x69 ?x69 ?x70 ?x71 ?x71) (* 3 (+ c k) ?x69 ?x69 ?x69 ?x70))))
 (let ((?x80 (- (+ ?x75 (* 3 (+ c k) ?x69 ?x70 ?x71)) (* 2 ?x69 ?x70 ?x71 ?x71))))
 (let ((?x85 (- (+ (- ?x80 (* ?x69 ?x70 ?x71)) (* ?x69 ?x69 ?x69 ?x69 ?x70 ?x71)) (* ?x69 ?x69 ?x69 ?x69 ?x70))))
 (let ((?x89 (+ ?x85 (* 2 ?x69 ?x69 ?x69 ?x70 ?x71) (* ?x69 ?x69 ?x69 ?x70) (* ?x69 ?x69 ?x70 ?x71))))
 (let (($x67 (= (+ (- (+ 1 (* 3 n n)) k) (* 3 n)) 0)))
 (let ((?x59 (* 2 n)))
 (let (($x61 (= (+ (- (+ (- 1 (* 3 c)) (* k n)) k) ?x59) 0)))
 (let ((?x44 (* 5 k)))
 (let ((?x47 (- (- (- (* 4 1) (* 18 c)) (* 9 c n)) ?x44)))
 (let (($x93 (and (= (- (+ (* (- 6) 1) m) (* 6 n)) 0) (= (+ ?x47 ?x48 ?x49) 0) $x61 $x67 (or (not (= ?x89 0))))))
 (rewrite (= $x93 $x430)))))))))))))))))))))))))))))
 ))
 (let ((@x95 (asserted $x94)))
 (let ((@x559 (mp (mp @x95 (quant-intro (proof-bind ?x530) (= $x94 $x193)) $x193) (rewrite (= $x193 $x193)) $x193)))
 (let ((@x858 (mp (mp @x559 (quant-intro (proof-bind ?x852) (= $x193 $x851)) $x851) (quant-intro (proof-bind ?x500) (= $x851 $x470)) $x470)))
 (let ((@x1460 (mp~ (mp @x858 (quant-intro (proof-bind ?x942) (= $x470 $x943)) $x943) (sk (~ $x943 $x286)) $x286)))
 (let ((@x122 (mp @x1460 (rewrite (= $x286 $x97)) $x97)))
 (let ((@x1396 (and-elim @x122 $x114)))
 (let ((@x1064 (unit-resolution ((_ th-lemma arith triangle-eq) (or (not $x114) $x962)) @x1396 $x962)))
 (let (($x960 (>= ?x120 6)))
 (let ((@x538 (unit-resolution ((_ th-lemma arith triangle-eq) (or (not $x114) $x960)) @x1396 $x960)))
 (let (($x933 (<= ?x260 (- 1))))
 (let ((@x246 (and-elim @x122 $x279)))
 (let ((@x774 (unit-resolution ((_ th-lemma arith triangle-eq) (or (not $x279) $x933)) @x246 $x933)))
 (let (($x958 (>= ?x260 (- 1))))
 (let ((@x644 (unit-resolution ((_ th-lemma arith triangle-eq) (or (not $x279) $x958)) @x246 $x958)))
 (let (($x932 (<= ?x784 1)))
 (let ((@x274 (and-elim @x122 $x1110)))
 (let ((@x966 (unit-resolution ((_ th-lemma arith triangle-eq) (or (not $x1110) $x932)) @x274 $x932)))
 (let (($x931 (>= ?x784 1)))
 (let ((@x824 (unit-resolution ((_ th-lemma arith triangle-eq) (or (not $x1110) $x931)) @x274 $x931)))
 (let (($x961 (<= ?x296 4)))
 (let ((@x245 (and-elim @x122 $x252)))
 (let ((@x1345 (unit-resolution ((_ th-lemma arith triangle-eq) (or (not $x252) $x961)) @x245 $x961)))
 (let (($x959 (>= ?x296 4)))
 (let ((@x811 (unit-resolution ((_ th-lemma arith triangle-eq) (or (not $x252) $x959)) @x245 $x959)))
 (let (($x1176 (not (<= ?x98 0))))
 (let (($x930 (>= ?x98 0)))
 (let ((@x1206 ((_ th-lemma arith) (hypothesis (not $x930)) @x824 @x966 @x644 @x774 @x824 @x966 @x538 @x1064 @x824 @x966 @x811 @x1345 @x824 @x966 @x824 @x966 @x538 @x1064 @x824 @x966 @x824 @x966 @x538 @x1064 @x824 @x966 @x644 @x774 @x538 @x1064 false)))
 (let ((@x1390 (unit-resolution ((_ th-lemma arith triangle-eq) (or $x103 $x1176 (not $x930))) (and-elim @x122 $x121) (or $x1176 (not $x930)))))
 ((_ th-lemma arith) (unit-resolution @x1390 (lemma @x1206 $x930) $x1176) @x824 @x966 @x824 @x966 @x644 @x774 @x824 @x966 @x538 @x1064 @x824 @x966 @x811 @x1345 @x824 @x966 @x824 @x966 @x538 @x1064 @x824 @x966 @x824 @x966 @x538 @x1064 @x824 @x966 @x644 @x774 @x538 @x1064 false))))))))))))))))))))))))))))))))))))))))))))))))))))))))))))))))))))

(:added-eqs                 4
 :arith-assert-diseq        1
 :arith-assert-lower        46
 :arith-assert-upper        57
 :arith-branch-var          3
 :arith-conflicts           3
 :arith-eq-adapter          5
 :arith-gcd-tests           26
 :arith-gomory-cuts         1
 :arith-grobner             2
 :arith-ineq-splits         3
 :arith-max-min             683
 :arith-nonlinear-bounds    42
 :arith-nonlinear-horner    21
 :arith-num-rows            9
 :arith-patches             6
 :arith-pivots              17
 :arith-row-summations      57
 :arith-tableau-max-columns 105
 :arith-tableau-max-rows    9
 :conflicts                 3
 :decisions                 40
 :del-clause                16
 :final-checks              12
 :max-memory                3.96
 :memory                    3.31
 :mk-bool-var               61
 :mk-clause                 16
 :num-allocs                1539534
 :num-checks                1
 :propagations              11
 :rlimit-count              18382
 :time                      0.01
 :total-time                0.02)
